NAME : portcgen-20-26
COMMENT : portcgen N=20, seed=26
TYPE : TSP
DIMENSION : 20
EDGE_WEIGHT_TYPE : EUC_2D
NODE_COORD_SECTION
1 -185570 -60464
2 160949 -243974
3 -9126 -89086
4 -237154 369524
5 -190520 92221
6 187606 7274
7 -98544 23099
8 -369215 -111045
9 69581 243875
10 -52172 -377963
11 -303394 340647
12 -163187 -70714
13 -123067 242879
14 -173326 -294701
15 297861 -589138
16 44543 -223303
17 308660 209719
18 -191099 -341506
19 147270 40269
20 311486 -94740
